
  15    0


   0  10 2 3 4 5 6 7 11 12 13 14 
   5   2 9 8 
   6   1 10 
   2   1 9 
   5   1 9 
   9   1 8 
   7   1 8 
   2   1 15
   8   1 15
  10   1 15
  10   1 15
  10   1 15
  10   1 15
  10   1 15
   0   0 
